numero_plantas = 4;
numero_clientes = 4;
numero_dias = 7;
costos = [22.0, 32.0, 42.0, 52.0];
capacidades = [350.0, 1100.0, 550.0, 700.0];
G = 50.0;
demanda = [| 100.0, 120.0, 140.0, 160.0, 180.0, 200.0, 220.0
           | 150.0, 170.0, 190.0, 210.0, 230.0, 250.0, 270.0
           | 200.0, 220.0, 240.0, 260.0, 280.0, 300.0, 320.0
           | 250.0, 270.0, 290.0, 310.0, 330.0, 350.0, 370.0|];
pagos = [95.0, 105.0, 115.0, 125.0];
porcentaje_regimen_alto = [100.0, 85.0, 80.0, 90.0]; 
max_dias_consecutivos_regimen = [2, 4, 3, 1];        